c Random generated cnf formula, satisfiable: false
p cnf 10 50
-2 -1 7 0
4 2 -5 0
-5 9 -2 0
7 -10 5 0
6 8 -2 0
-2 -5 8 0
3 7 -8 0
-7 5 -3 0
9 -8 -10 0
-7 9 3 0
5 1 -7 0
-10 -8 3 0
2 -7 3 0
2 -1 -5 0
-6 -2 -1 0
-8 -3 2 0
3 4 2 0
-1 4 -8 0
-1 -8 -10 0
9 5 8 0
10 1 -7 0
-5 8 -9 0
-9 -7 -6 0
4 9 5 0
8 -9 -3 0
-3 -9 -6 0
-1 9 6 0
7 -6 8 0
7 -9 5 0
-9 -6 8 0
-3 9 10 0
7 5 10 0
-5 7 -10 0
8 -7 -5 0
-4 3 -2 0
-10 -7 9 0
5 -9 -7 0
10 -3 -7 0
8 10 9 0
9 1 -6 0
-4 -3 -9 0
-9 -4 10 0
-5 -1 7 0
4 8 -2 0
4 9 -5 0
2 -6 -3 0
-7 2 3 0
8 9 -4 0
-5 -9 -2 0
10 7 2 0
